p cnf 86 645
-86 0
-86 -80 -43 -37 -9 0
-86 -80 -37 -9 -3 0
-86 -72 0
-86 -57 0
-86 -49 -43 -15 -9 0
-86 -49 -43 -15 -6 0
-86 -43 -37 0
-86 -43 -9 -6 0
-86 -43 -9 -3 0
-86 -43 -6 0
-86 -37 0
-86 -15 0
-86 -15 -9 0
-86 -9 -3 0
-85 0
-85 -79 -42 -36 -8 0
-85 -79 -36 -8 -2 0
-85 -71 0
-85 -56 0
-85 -48 -42 -14 -8 0
-85 -48 -42 -14 -5 0
-85 -42 -36 0
-85 -42 -8 -5 0
-85 -42 -8 -2 0
-85 -42 -5 0
-85 -36 0
-85 -14 0
-85 -14 -8 0
-85 -8 -2 0
-84 0
-84 -78 -41 -35 -7 0
-84 -78 -35 -7 -1 0
-84 -70 0
-84 -55 0
-84 -47 -41 -13 -7 0
-84 -47 -41 -13 -4 0
-84 -41 -35 0
-84 -41 -7 -4 0
-84 -41 -7 -1 0
-84 -41 -4 0
-84 -35 0
-84 -13 0
-84 -13 -7 0
-84 -7 -1 0
-83 0
-83 -77 -43 -34 -6 0
-83 -77 -40 -34 -6 0
-83 -69 0
-83 -54 0
-83 -46 -40 -12 -6 0
-83 -46 -40 -12 -3 0
-83 -43 -40 -6 0
-83 -43 -6 0
-83 -40 -34 0
-83 -40 -6 -3 0
-83 -40 -3 0
-83 -34 0
-83 -12 0
-83 -12 -6 0
-82 0
-82 -76 -42 -33 -5 0
-82 -76 -39 -33 -5 0
-82 -68 0
-82 -53 0
-82 -45 -39 -11 -5 0
-82 -45 -39 -11 -2 0
-82 -42 -39 -5 0
-82 -42 -5 0
-82 -39 -33 0
-82 -39 -5 -2 0
-82 -39 -2 0
-82 -33 0
-82 -11 0
-82 -11 -5 0
-81 0
-81 -75 -41 -32 -4 0
-81 -75 -38 -32 -4 0
-81 -67 0
-81 -52 0
-81 -44 -38 -10 -4 0
-81 -44 -38 -10 -1 0
-81 -41 -38 -4 0
-81 -41 -4 0
-81 -38 -32 0
-81 -38 -4 -1 0
-81 -38 -1 0
-81 -32 0
-81 -10 0
-81 -10 -4 0
-80 0
-80 -74 -40 -31 -3 0
-80 -74 -37 -31 -3 0
-80 -66 0
-80 -51 0
-80 -43 -37 0
-80 -43 -37 -3 0
-80 -40 -37 -3 0
-80 -40 -3 0
-80 -37 -31 0
-80 -31 0
-80 -9 0
-80 -9 -3 0
-79 0
-79 -73 -39 -30 -2 0
-79 -73 -36 -30 -2 0
-79 -65 0
-79 -50 0
-79 -42 -36 0
-79 -42 -36 -2 0
-79 -39 -36 -2 0
-79 -39 -2 0
-79 -36 -30 0
-79 -30 0
-79 -8 0
-79 -8 -2 0
-78 0
-78 -72 -38 -29 -1 0
-78 -72 -35 -29 -1 0
-78 -64 0
-78 -49 0
-78 -41 -35 0
-78 -41 -35 -1 0
-78 -38 -35 -1 0
-78 -38 -1 0
-78 -35 -29 0
-78 -29 0
-78 -7 0
-78 -7 -1 0
-77 0
-77 -71 -43 -37 -28 0
-77 -71 -43 -34 -28 0
-77 -63 0
-77 -48 0
-77 -43 -40 -34 0
-77 -43 -37 0
-77 -43 -37 -34 0
-77 -43 -6 0
-77 -40 -34 0
-77 -34 -28 0
-77 -28 0
-77 -6 0
-76 0
-76 -70 -42 -36 -27 0
-76 -70 -42 -33 -27 0
-76 -62 0
-76 -47 0
-76 -42 -39 -33 0
-76 -42 -36 0
-76 -42 -36 -33 0
-76 -42 -5 0
-76 -39 -33 0
-76 -33 -27 0
-76 -27 0
-76 -5 0
-75 0
-75 -69 -41 -35 -26 0
-75 -69 -41 -32 -26 0
-75 -61 0
-75 -46 0
-75 -41 -38 -32 0
-75 -41 -35 0
-75 -41 -35 -32 0
-75 -41 -4 0
-75 -38 -32 0
-75 -32 -26 0
-75 -26 0
-75 -4 0
-74 0
-74 -68 -40 -34 -25 0
-74 -68 -40 -31 -25 0
-74 -60 0
-74 -45 0
-74 -40 -37 -31 0
-74 -40 -34 0
-74 -40 -34 -31 0
-74 -40 -3 0
-74 -37 -31 0
-74 -31 -25 0
-74 -25 0
-74 -3 0
-73 0
-73 -67 -39 -33 -24 0
-73 -67 -39 -30 -24 0
-73 -59 0
-73 -44 0
-73 -39 -36 -30 0
-73 -39 -33 0
-73 -39 -33 -30 0
-73 -39 -2 0
-73 -36 -30 0
-73 -30 -24 0
-73 -24 0
-73 -2 0
-72 0
-72 -66 -38 -32 -23 0
-72 -66 -38 -29 -23 0
-72 -58 0
-72 -38 -35 -29 0
-72 -38 -32 0
-72 -38 -32 -29 0
-72 -38 -1 0
-72 -35 -29 0
-72 -29 -23 0
-72 -23 0
-72 -1 0
-71 0
-71 -65 -37 -31 -22 0
-71 -65 -37 -28 -22 0
-71 -57 0
-71 -43 0
-71 -43 -37 0
-71 -37 -34 -28 0
-71 -37 -31 0
-71 -37 -31 -28 0
-71 -34 -28 0
-71 -28 -22 0
-71 -22 0
-70 0
-70 -64 -36 -30 -21 0
-70 -64 -36 -27 -21 0
-70 -56 0
-70 -42 0
-70 -42 -36 0
-70 -36 -33 -27 0
-70 -36 -30 0
-70 -36 -30 -27 0
-70 -33 -27 0
-70 -27 -21 0
-70 -21 0
-69 0
-69 -63 -35 -29 -20 0
-69 -63 -35 -26 -20 0
-69 -55 0
-69 -41 0
-69 -41 -35 0
-69 -35 -32 -26 0
-69 -35 -29 0
-69 -35 -29 -26 0
-69 -32 -26 0
-69 -26 -20 0
-69 -20 0
-68 0
-68 -62 -34 -28 -19 0
-68 -62 -34 -25 -19 0
-68 -54 0
-68 -40 0
-68 -40 -34 0
-68 -34 -31 -25 0
-68 -34 -28 0
-68 -34 -28 -25 0
-68 -31 -25 0
-68 -25 -19 0
-68 -19 0
-67 0
-67 -61 -33 -27 -18 0
-67 -61 -33 -24 -18 0
-67 -53 0
-67 -39 0
-67 -39 -33 0
-67 -33 -30 -24 0
-67 -33 -27 0
-67 -33 -27 -24 0
-67 -30 -24 0
-67 -24 -18 0
-67 -18 0
-66 0
-66 -60 -32 -26 -17 0
-66 -60 -32 -23 -17 0
-66 -52 0
-66 -38 0
-66 -38 -32 0
-66 -32 -29 -23 0
-66 -32 -26 0
-66 -32 -26 -23 0
-66 -29 -23 0
-66 -23 -17 0
-66 -17 0
-65 0
-65 -59 -31 -25 -16 0
-65 -59 -31 -22 -16 0
-65 -51 0
-65 -37 0
-65 -37 -31 0
-65 -31 -28 -22 0
-65 -31 -25 0
-65 -31 -25 -22 0
-65 -28 -22 0
-65 -22 -16 0
-65 -16 0
-64 0
-64 -58 -30 -24 -15 0
-64 -58 -30 -21 -15 0
-64 -50 0
-64 -36 0
-64 -36 -30 0
-64 -30 -27 -21 0
-64 -30 -24 0
-64 -30 -24 -21 0
-64 -27 -21 0
-64 -21 -15 0
-64 -15 0
-63 0
-63 -57 -29 -23 -14 0
-63 -57 -29 -20 -14 0
-63 -49 0
-63 -35 0
-63 -35 -29 0
-63 -29 -26 -20 0
-63 -29 -23 0
-63 -29 -23 -20 0
-63 -26 -20 0
-63 -20 -14 0
-63 -14 0
-62 0
-62 -56 -28 -22 -13 0
-62 -56 -28 -19 -13 0
-62 -48 0
-62 -34 0
-62 -34 -28 0
-62 -28 -25 -19 0
-62 -28 -22 0
-62 -28 -22 -19 0
-62 -25 -19 0
-62 -19 -13 0
-62 -13 0
-61 0
-61 -55 -27 -21 -12 0
-61 -55 -27 -18 -12 0
-61 -47 0
-61 -33 0
-61 -33 -27 0
-61 -27 -24 -18 0
-61 -27 -21 0
-61 -27 -21 -18 0
-61 -24 -18 0
-61 -18 -12 0
-61 -12 0
-60 0
-60 -54 -26 -20 -11 0
-60 -54 -26 -17 -11 0
-60 -46 0
-60 -32 0
-60 -32 -26 0
-60 -26 -23 -17 0
-60 -26 -20 0
-60 -26 -20 -17 0
-60 -23 -17 0
-60 -17 -11 0
-60 -11 0
-59 0
-59 -53 -25 -19 -10 0
-59 -53 -25 -16 -10 0
-59 -45 0
-59 -31 0
-59 -31 -25 0
-59 -25 -22 -16 0
-59 -25 -19 0
-59 -25 -19 -16 0
-59 -22 -16 0
-59 -16 -10 0
-59 -10 0
-58 0
-58 -52 -24 -18 -9 0
-58 -52 -24 -15 -9 0
-58 -44 0
-58 -30 0
-58 -30 -24 0
-58 -24 -21 -15 0
-58 -24 -18 0
-58 -24 -18 -15 0
-58 -21 -15 0
-58 -15 -9 0
-58 -9 0
-57 0
-57 -51 -23 -17 -8 0
-57 -51 -23 -14 -8 0
-57 -29 0
-57 -29 -23 0
-57 -23 -20 -14 0
-57 -23 -17 0
-57 -23 -17 -14 0
-57 -20 -14 0
-57 -14 -8 0
-57 -8 0
-56 0
-56 -50 -22 -16 -7 0
-56 -50 -22 -13 -7 0
-56 -28 0
-56 -28 -22 0
-56 -22 -19 -13 0
-56 -22 -16 0
-56 -22 -16 -13 0
-56 -19 -13 0
-56 -13 -7 0
-56 -7 0
-55 0
-55 -49 -21 -15 -6 0
-55 -49 -21 -12 -6 0
-55 -27 0
-55 -27 -21 0
-55 -21 -18 -12 0
-55 -21 -15 0
-55 -21 -15 -12 0
-55 -18 -12 0
-55 -12 -6 0
-55 -6 0
-54 0
-54 -48 -20 -14 -5 0
-54 -48 -20 -11 -5 0
-54 -26 0
-54 -26 -20 0
-54 -20 -17 -11 0
-54 -20 -14 0
-54 -20 -14 -11 0
-54 -17 -11 0
-54 -11 -5 0
-54 -5 0
-53 0
-53 -47 -19 -13 -4 0
-53 -47 -19 -10 -4 0
-53 -25 0
-53 -25 -19 0
-53 -19 -16 -10 0
-53 -19 -13 0
-53 -19 -13 -10 0
-53 -16 -10 0
-53 -10 -4 0
-53 -4 0
-52 0
-52 -46 -18 -12 -3 0
-52 -46 -18 -9 -3 0
-52 -24 0
-52 -24 -18 0
-52 -18 -15 -9 0
-52 -18 -12 0
-52 -18 -12 -9 0
-52 -15 -9 0
-52 -9 -3 0
-52 -3 0
-51 0
-51 -45 -17 -11 -2 0
-51 -45 -17 -8 -2 0
-51 -23 0
-51 -23 -17 0
-51 -17 -14 -8 0
-51 -17 -11 0
-51 -17 -11 -8 0
-51 -14 -8 0
-51 -8 -2 0
-51 -2 0
-50 0
-50 -44 -16 -10 -1 0
-50 -44 -16 -7 -1 0
-50 -22 0
-50 -22 -16 0
-50 -16 -13 -7 0
-50 -16 -10 0
-50 -16 -10 -7 0
-50 -13 -7 0
-50 -7 -1 0
-50 -1 0
-49 0
-49 -43 0
-49 -43 -6 0
-49 -21 0
-49 -21 -15 0
-49 -15 -12 -6 0
-49 -15 -9 0
-49 -15 -9 -6 0
-49 -12 -6 0
-48 0
-48 -42 0
-48 -42 -5 0
-48 -20 0
-48 -20 -14 0
-48 -14 -11 -5 0
-48 -14 -8 0
-48 -14 -8 -5 0
-48 -11 -5 0
-47 0
-47 -41 0
-47 -41 -4 0
-47 -19 0
-47 -19 -13 0
-47 -13 -10 -4 0
-47 -13 -7 0
-47 -13 -7 -4 0
-47 -10 -4 0
-46 0
-46 -40 0
-46 -40 -3 0
-46 -18 0
-46 -18 -12 0
-46 -12 -9 -3 0
-46 -12 -6 0
-46 -12 -6 -3 0
-46 -9 -3 0
-45 0
-45 -39 0
-45 -39 -2 0
-45 -17 0
-45 -17 -11 0
-45 -11 -8 -2 0
-45 -11 -5 0
-45 -11 -5 -2 0
-45 -8 -2 0
-44 0
-44 -38 0
-44 -38 -1 0
-44 -16 0
-44 -16 -10 0
-44 -10 -7 -1 0
-44 -10 -4 0
-44 -10 -4 -1 0
-44 -7 -1 0
-43 -40 -37 0
-43 -40 -3 0
-43 -6 -3 0
-42 -39 -36 0
-42 -39 -2 0
-42 -5 -2 0
-41 -38 -35 0
-41 -38 -1 0
-41 -4 -1 0
-40 -37 -34 0
-39 -36 -33 0
-38 -35 -32 0
-37 -34 -31 0
-36 -33 -30 0
-35 -32 -29 0
-34 -31 -28 0
-33 -30 -27 0
-32 -29 -26 0
-31 -28 -25 0
-30 -27 -24 0
-29 -26 -23 0
-28 -25 -22 0
-27 -24 -21 0
-26 -23 -20 0
-25 -22 -19 0
-24 -21 -18 0
-23 -20 -17 0
-22 -19 -16 0
-21 -18 -15 0
-20 -17 -14 0
-19 -16 -13 0
-18 -15 -12 0
-17 -14 -11 0
-16 -13 -10 0
-15 -12 -9 0
-14 -11 -8 0
-13 -10 -7 0
-12 -9 -6 0
-11 -8 -5 0
-10 -7 -4 0
-9 -6 -3 0
-8 -5 -2 0
-7 -4 -1 0
1 14 0
1 20 0
1 25 0
1 31 0
2 15 0
2 21 0
2 26 0
2 32 0
3 16 0
3 22 0
3 27 0
3 33 0
4 17 0
4 23 0
4 28 0
4 34 0
5 18 0
5 24 0
5 29 0
5 35 0
6 19 0
6 25 0
6 30 0
6 36 0
7 20 0
7 26 0
7 31 0
7 37 0
8 21 0
8 27 0
8 32 0
8 38 0
9 22 0
9 28 0
9 33 0
9 39 0
10 23 0
10 29 0
10 34 0
10 40 0
11 24 0
11 30 0
11 35 0
11 41 0
12 25 0
12 31 0
12 36 0
12 42 0
13 26 0
13 32 0
13 37 0
13 43 0
14 27 0
14 33 0
14 38 0
15 28 0
15 34 0
15 39 0
16 29 0
16 35 0
16 40 0
17 30 0
17 36 0
17 41 0
18 31 0
18 37 0
18 42 0
19 32 0
19 38 0
19 43 0
20 33 0
20 39 0
21 34 0
21 40 0
22 35 0
22 41 0
23 36 0
23 42 0
24 37 0
24 43 0
25 38 0
26 39 0
27 40 0
28 41 0
29 42 0
30 43 0
